50, 11769
504, 990
504, 990
168, 330
252, 495
84, 165
672, 1320
516, 96
336, 660
688, 128
602, 112
840, 1650
672, 1320
516, 96
336, 660
430, 80
504, 990
588, 1155
168, 330
756, 1485
168, 330
84, 165
516, 96
336, 660
252, 495
688, 128
252, 495
688, 128
756, 1485
516, 96
516, 96
172, 32
84, 165
86, 16
602, 112
774, 144
516, 96
672, 1320
840, 1650
168, 330
420, 825
860, 160
252, 495
504, 990
516, 96
252, 495
840, 1650
344, 64
774, 144
588, 1155
602, 112
